Version identifier: 12.10.0.0 | 2019-11-26 | 843d4de
CPXPARAM_WorkMem                                 28672
Tried aggregator 2 times.
MIP Presolve modified 28 coefficients.
Aggregator did 30 substitutions.
Reduced MIP has 139 rows, 180 columns, and 652 nonzeros.
Reduced MIP has 180 binaries, 0 generals, 0 SOSs, and 0 indicators.
Presolve time = 0,00 sec. (0,83 ticks)
Found incumbent of value 568,000000 after 0,00 sec. (1,35 ticks)
Probing time = 0,00 sec. (0,20 ticks)
Tried aggregator 1 time.
Detecting symmetries...
MIP Presolve eliminated 32 rows and 0 columns.
MIP Presolve added 64 rows and 0 columns.
Reduced MIP has 171 rows, 180 columns, and 684 nonzeros.
Reduced MIP has 180 binaries, 0 generals, 0 SOSs, and 0 indicators.
Presolve time = 0,00 sec. (0,82 ticks)
Probing time = 0,00 sec. (0,20 ticks)
Clique table members: 427.
MIP emphasis: balance optimality and feasibility.
MIP search method: dynamic search.
Parallel mode: deterministic, using up to 16 threads.
Root relaxation solution time = 0,00 sec. (0,86 ticks)

        Nodes                                         Cuts/
   Node  Left     Objective  IInf  Best Integer    Best Bound    ItCnt     Gap

*     0+    0                          568,0000        0,0000           100,00%
*     0+    0                          367,0000        0,0000           100,00%
*     0+    0                          350,0000        0,0000           100,00%
*     0+    0                          329,0000        0,0000           100,00%
      0     0      149,7500   131      329,0000      149,7500      113   54,48%
      0     0      149,7500   131      329,0000     Cuts: 101      175   54,48%
      0     0      149,8127   131      329,0000      Cuts: 98      246   54,46%
      0     0      151,9253   131      329,0000     Cuts: 144      287   53,82%
      0     0      153,8025   131      329,0000     Cuts: 109      336   53,25%
      0     0      155,3031   131      329,0000     Cuts: 106      382   52,80%
      0     0      178,6585   131      329,0000     Cuts: 144      570   45,70%
      0     0      180,5620   131      329,0000      Cuts: 76      619   45,12%
      0     0      181,4267   131      329,0000      Cuts: 51      650   44,86%
      0     0      182,1942   131      329,0000      Cuts: 38      689   44,62%
      0     0      183,2388   131      329,0000      Cuts: 63      739   44,30%
      0     0      184,0315   131      329,0000  ZeroHalf: 16      777   44,06%
      0     0      184,5021   131      329,0000      Cuts: 79      829   43,92%
      0     0      184,7488   131      329,0000      Cuts: 27      862   43,85%
      0     0      187,1172   131      329,0000      Cuts: 71      957   43,13%
      0     0      187,8310   131      329,0000      Cuts: 48     1017   42,91%
      0     0      188,4156   131      329,0000      Cuts: 33     1068   42,73%
      0     0      188,7417   131      329,0000      Cuts: 50     1125   42,63%
      0     0      189,0032   131      329,0000      Cuts: 26     1164   42,55%
*     0+    0                          297,0000      189,0032            36,36%
      0     0      189,3127   131      297,0000      Cuts: 36     1207   35,94%
      0     0      189,6607   131      297,0000      Cuts: 25     1245   35,94%
      0     0      189,9012   131      297,0000      Cuts: 44     1282   35,94%
      0     0      190,0460   131      297,0000      Cuts: 43     1334   35,94%
      0     0      190,2602   131      297,0000      Cuts: 43     1397   35,94%
      0     0      190,3357   131      297,0000      Cuts: 34     1435   35,91%
      0     0      190,4293   131      297,0000      Cuts: 39     1471   35,88%
      0     0      190,5255   131      297,0000      Cuts: 28     1513   35,85%
      0     0      190,5932   131      297,0000      Cuts: 43     1541   35,83%
      0     0      190,6120   131      297,0000      Cuts: 15     1560   35,82%
      0     2      190,6120   167      297,0000      201,0833     1560   32,30%
Elapsed time = 0,37 sec. (198,12 ticks, tree = 0,02 MB, solutions = 5)

Clique cuts applied:  65
Cover cuts applied:  143
Mixed integer rounding cuts applied:  61
Zero-half cuts applied:  45
Lift and project cuts applied:  3
Gomory fractional cuts applied:  2

Root node processing (before b&c):
  Real time             =    0,37 sec. (197,73 ticks)
Parallel b&c, 16 threads:
  Real time             =    0,30 sec. (168,00 ticks)
  Sync time (average)   =    0,12 sec.
  Wait time (average)   =    0,00 sec.
                          ------------
Total (root+branch&cut) =    0,67 sec. (365,73 ticks)
